Traveling Salesman Problem/TSP_generados/Aleatorio1621103643_16.tsp
NAME: Aleatorio1621103643_16.tsp
COMMENT: Randomly generated scenario
TYPE: TSP
DIMENSION: 16
EDGE_WEIGHT_TYPE: ATT
NODE_COORD_SECTION
1 1.7 35.44
2 24.88 15.53
3 27.74 4.11
4 47.56 41.44
5 28.8 5.99
6 18.1 32.04
7 25.68 40.02
8 21.8 29.42
9 48.15 3.29
10 8.08 22.98
11 9.56 17.77
12 14.37 45.46
13 14.87 8.99
14 16.33 9.69
15 17.95 47.33
16 39.32 28.91
