Traveling Salesman Problem/TSP_generados/Aleatorio1621103643_16.opt.tour
NAME: Aleatorio1621103643_16.opt.tour
COMMENT: Optimal solution for Aleatorio1621103643_16 (189.8734418426995)
TYPE: TOUR
DIMENSION: 16
TOUR_SECTION
1 10 11 13 14 2 5 3 9 16 4 7 8 6 15 12
-1
EOF
